; benchmark generated from python API
(set-info :status unknown)
(declare-datatypes ((RealState 0)) (((RMk1 (rval1 Real)) (RMk2 (rval2 Real)))))
 (assert
 (forall ((|v17:0| Real) )(forall ((|v16:1| Real) )(forall ((|v15:2| Real) )(forall ((|v14:3| Real) )(forall ((|v13:4| Real) )(forall ((|v12:5| Real) )(exists ((|v11:6_st| RealState) (val!8934 Real) )(exists ((|v10:7_st| RealState) (val!8935 Real) )(exists ((|v9:8_st| RealState) (val!8936 Real) )(exists ((|v8:9_st| RealState) (val!8937 Real) )(exists ((|v7:10_st| RealState) (val!8938 Real) )(exists ((|v6:11_st| RealState) (val!8939 Real) )(forall ((|v5:12| Real) )(forall ((|v4:13| Real) )(forall ((|v3:14| Real) )(forall ((|v2:15| Real) )(forall ((|v1:16| Real) )(forall ((|v0:17| Real) )(let ((?x4805 (- 4.0)))
 (let ((?x2880 (* 7.0 |v2:15|)))
 (let ((?x3781 (* 18.0 |v4:13|)))
 (let ((?x7119 (- 17.0)))
 (let ((?x6064 (* ?x7119 |v16:1|)))
 (let ((?x3397 (+ (+ (+ (* 18.0 |v14:3|) (* 7.0 |v16:1|)) (* (- 18.0) |v1:16|)) ?x6064)))
 (let ((?x2097 (rval2 |v9:8_st|)))
 (let ((?x22 (* 14.0 ?x2097)))
 (let ((?x357 (rval2 |v8:9_st|)))
 (let ((?x5999 (- 16.0)))
 (let ((?x3521 (* ?x5999 ?x357)))
 (let ((?x2989 (* 15.0 ?x357)))
 (let ((?x4204 (- 20.0)))
 (let ((?x2634 (* ?x4204 ?x2097)))
 (let ((?x222 (+ (+ (+ (* (- 12.0) (rval2 |v11:6_st|)) (* 3.0 (rval2 |v11:6_st|))) ?x2634) ?x2989)))
 (let (($x155 (and (<= (+ (+ (+ ?x222 ?x3521) ?x22) (* (- 19.0) |v17:0|)) 4.0) (<= (+ (+ (+ ?x3397 ?x3781) ?x2880) (* (- 5.0) |v12:5|)) ?x4805))))
 (let ((?x1406 (- 1.0)))
 (let ((?x4733 (rval2 |v10:7_st|)))
 (let ((?x3597 (* 19.0 ?x4733)))
 (let ((?x3555 (* 8.0 ?x2097)))
 (let ((?x5581 (+ (+ (+ (* (- 14.0) |v4:13|) (* (- 6.0) |v15:2|)) (* 17.0 |v3:14|)) ?x3555)))
 (let ((?x516 (+ (+ (+ ?x5581 (* (- 5.0) (rval2 |v6:11_st|))) ?x3597) (* 17.0 (rval2 |v6:11_st|)))))
 (let ((?x2331 (- 5.0)))
 (let ((?x2129 (* ?x2331 |v5:12|)))
 (let ((?x2903 (rval2 |v6:11_st|)))
 (let ((?x2294 (- 6.0)))
 (let ((?x2161 (* ?x2294 ?x2903)))
 (let ((?x536 (rval2 |v7:10_st|)))
 (let ((?x3871 (* 3.0 ?x536)))
 (let ((?x5660 (* ?x4204 |v15:2|)))
 (let ((?x4342 (+ (+ (+ (+ (* ?x1406 |v4:13|) (* (- 3.0) |v16:1|)) (* 18.0 ?x4733)) ?x5660) ?x3871)))
 (let ((?x3311 (* 6.0 ?x4733)))
 (let ((?x7238 (* 2.0 |v5:12|)))
 (let ((?x2972 (* 2.0 |v15:2|)))
 (let ((?x5713 (- 3.0)))
 (let ((?x6732 (* ?x5713 |v2:15|)))
 (let ((?x8200 (+ (+ (+ (+ (* ?x7119 |v13:4|) (* 2.0 ?x536)) (* 19.0 ?x2903)) ?x6732) ?x2972)))
 (let ((?x672 (* 12.0 |v3:14|)))
 (let ((?x59 (* 10.0 |v5:12|)))
 (let ((?x3112 (* ?x4204 ?x4733)))
 (let ((?x3811 (+ (+ (+ (+ (* 2.0 |v16:1|) (* ?x7119 ?x357)) (* 16.0 |v16:1|)) ?x3112) ?x59)))
 (let (($x3196 (and (<= (+ (+ ?x3811 ?x672) (* 9.0 ?x2097)) ?x2294) (<= (+ (+ ?x8200 ?x7238) ?x3311) 7.0))))
 (let ((?x3593 (* 7.0 |v4:13|)))
 (let ((?x72 (rval2 |v11:6_st|)))
 (let ((?x2013 (* 17.0 ?x72)))
 (let ((?x7236 (* 12.0 |v0:17|)))
 (let ((?x983 (- 14.0)))
 (let ((?x4066 (* ?x983 |v4:13|)))
 (let ((?x6395 (+ (+ (+ (* (- 10.0) |v3:14|) (* 13.0 |v3:14|)) (* 13.0 ?x72)) ?x4066)))
 (let ((?x2953 (* 9.0 ?x357)))
 (let ((?x5437 (* 14.0 ?x536)))
 (let ((?x4205 (- 18.0)))
 (let ((?x5691 (* ?x4205 |v5:12|)))
 (let ((?x6534 (+ (+ (+ (* 10.0 |v3:14|) (* (- 11.0) ?x72)) (* 17.0 ?x357)) ?x5691)))
 (let (($x5575 (or (<= (+ (+ (+ ?x6534 ?x5437) (* (- 11.0) |v17:0|)) ?x2953) 18.0) (<= (+ (+ (+ ?x6395 ?x7236) ?x2013) ?x3593) 16.0))))
 (let (($x3561 (or (or $x5575 $x3196) (or (and (<= (+ (+ ?x4342 ?x2161) ?x2129) ?x4805) (<= ?x516 ?x1406)) $x155))))
 (let ((?x6909 (* ?x2294 |v5:12|)))
 (let ((?x3843 (* 14.0 |v1:16|)))
 (let ((?x1834 (* 13.0 ?x2903)))
 (let ((?x1209 (* 11.0 |v5:12|)))
 (let ((?x3573 (+ (+ (+ (+ (* ?x5713 ?x2097) (* 15.0 |v15:2|)) (* 7.0 |v15:2|)) ?x1209) ?x1834)))
 (let ((?x5805 (* ?x7119 |v5:12|)))
 (let ((?x8995 (* ?x2331 |v13:4|)))
 (let ((?x2879 (* 16.0 ?x2097)))
 (let ((?x1291 (+ (+ (+ (+ (* 5.0 |v12:5|) (* ?x983 ?x2903)) (* 3.0 |v5:12|)) ?x3593) ?x2879)))
 (let (($x2395 (and (<= (+ (+ ?x1291 ?x8995) ?x5805) 1.0) (<= (+ (+ ?x3573 ?x3843) ?x6909) 3.0))))
 (let ((?x1556 (- 10.0)))
 (let ((?x7390 (* 14.0 |v5:12|)))
 (let ((?x811 (* 18.0 |v14:3|)))
 (let ((?x887 (* 16.0 |v2:15|)))
 (let ((?x1956 (+ (+ (+ (+ (* ?x4205 |v1:16|) (* 10.0 |v17:0|)) (* (- 8.0) |v16:1|)) ?x887) ?x811)))
 (let ((?x6496 (* 19.0 ?x2903)))
 (let ((?x7775 (* ?x4805 ?x536)))
 (let ((?x3486 (- 12.0)))
 (let ((?x52 (* ?x3486 ?x2097)))
 (let ((?x6783 (+ (+ (+ (+ (+ (* 14.0 |v13:4|) (* 17.0 |v0:17|)) ?x3593) ?x52) ?x7775) (* 17.0 ?x4733))))
 (let (($x8057 (and (and (<= (+ ?x6783 ?x6496) 16.0) (<= (+ (+ ?x1956 ?x3781) ?x7390) ?x1556)) $x2395)))
 (let ((?x4404 (* 13.0 |v3:14|)))
 (let ((?x5128 (- 11.0)))
 (let ((?x3602 (* ?x5128 |v14:3|)))
 (let ((?x729 (* ?x1406 |v3:14|)))
 (let ((?x5438 (+ (+ (+ (* 6.0 ?x72) (* 2.0 |v4:13|)) (* (- 15.0) |v2:15|)) ?x729)))
 (let ((?x5103 (* ?x983 |v12:5|)))
 (let ((?x3649 (- 19.0)))
 (let ((?x3412 (* ?x3649 |v1:16|)))
 (let ((?x5939 (+ (+ (+ (+ (* 16.0 ?x2903) (* ?x3486 |v17:0|)) (* 8.0 ?x2903)) ?x3412) ?x5103)))
 (let (($x4140 (or (<= (+ (+ ?x5939 (* ?x1556 ?x536)) ?x3843) 2.0) (<= (+ (+ (+ ?x5438 ?x3602) (* ?x3649 |v13:4|)) ?x4404) 17.0))))
 (let ((?x717 (- 7.0)))
 (let ((?x2683 (* ?x717 |v4:13|)))
 (let ((?x3502 (* 20.0 ?x536)))
 (let ((?x7503 (- 8.0)))
 (let ((?x1463 (* ?x7503 ?x2903)))
 (let ((?x2448 (+ (+ (+ (+ (* 11.0 |v17:0|) (* ?x4805 |v15:2|)) (* ?x4205 ?x4733)) ?x1463) ?x3502)))
 (let ((?x2726 (* ?x3486 |v3:14|)))
 (let ((?x6623 (* 4.0 ?x72)))
 (let ((?x2419 (* 8.0 |v3:14|)))
 (let ((?x1841 (* 20.0 |v3:14|)))
 (let ((?x1949 (+ (+ (+ (+ (* ?x5713 |v17:0|) (* ?x5713 ?x72)) (* 3.0 |v2:15|)) ?x1841) ?x2419)))
 (let (($x4900 (or (<= (+ (+ ?x1949 ?x6623) ?x2726) ?x5999) (<= (+ (+ ?x2448 (* ?x7503 ?x4733)) ?x2683) ?x717))))
 (let ((?x5966 (* 8.0 ?x357)))
 (let ((?x1807 (+ (+ (+ (+ ?x2161 (* 8.0 |v15:2|)) (* ?x4805 |v4:13|)) (* 8.0 |v0:17|)) ?x5966)))
 (let ((?x2214 (* ?x1406 |v14:3|)))
 (let ((?x430 (* 15.0 |v16:1|)))
 (let ((?x1324 (+ (+ (+ (+ ?x8995 (* 3.0 |v0:17|)) (* (- 13.0) |v12:5|)) (* ?x7503 |v2:15|)) ?x430)))
 (let (($x1540 (or (<= (+ (+ ?x1324 ?x2214) (* 10.0 |v12:5|)) ?x1406) (<= (+ (+ ?x1807 (* 0.0 |v17:0|)) (* ?x4805 ?x4733)) 12.0))))
 (let ((?x5034 (* ?x7503 |v4:13|)))
 (let ((?x6364 (* ?x4205 |v17:0|)))
 (let ((?x5041 (* ?x2294 |v12:5|)))
 (let ((?x1759 (* 0.0 |v0:17|)))
 (let ((?x6920 (+ (+ (+ (+ (* ?x2294 ?x2097) (* ?x3649 |v2:15|)) (* (- 15.0) |v3:14|)) ?x1759) ?x5041)))
 (let ((?x5992 (* 15.0 |v15:2|)))
 (let ((?x4286 (* ?x4204 |v5:12|)))
 (let ((?x5147 (+ (+ (+ (+ (* 13.0 ?x4733) (* 17.0 |v15:2|)) (* 19.0 ?x2097)) ?x4286) ?x72)))
 (let (($x3479 (and (<= (+ (+ ?x5147 (* 18.0 |v15:2|)) ?x5992) ?x3649) (<= (+ (+ ?x6920 ?x6364) ?x5034) 5.0))))
 (let ((?x4285 (* 4.0 |v5:12|)))
 (let ((?x3854 (* 7.0 |v13:4|)))
 (let ((?x3117 (* 20.0 |v4:13|)))
 (let ((?x1721 (* ?x3486 |v1:16|)))
 (let ((?x5888 (+ (+ (+ (+ (* ?x3649 |v14:3|) (* ?x7503 |v0:17|)) (* ?x5713 |v5:12|)) ?x1721) ?x3117)))
 (let ((?x2596 (* ?x5128 |v16:1|)))
 (let ((?x7466 (* 2.0 |v0:17|)))
 (let ((?x5735 (- 13.0)))
 (let ((?x6172 (* ?x5735 ?x536)))
 (let ((?x1928 (+ (+ (+ (+ (* 8.0 ?x536) (* 15.0 |v1:16|)) (* 18.0 |v17:0|)) ?x6172) (* ?x5128 |v12:5|))))
 (let (($x6170 (or (<= (+ (+ ?x1928 ?x7466) ?x2596) ?x4805) (<= (+ (+ ?x5888 ?x3854) ?x4285) 4.0))))
 (let ((?x1542 (* ?x3486 |v5:12|)))
 (let ((?x1411 (* 5.0 |v2:15|)))
 (let ((?x2870 (+ (+ (+ (+ ?x2596 (* ?x3486 ?x72)) (* 19.0 |v2:15|)) (* ?x983 ?x357)) (* 0.0 ?x2903))))
 (let ((?x291 (* ?x5128 ?x72)))
 (let ((?x3017 (* 6.0 |v0:17|)))
 (let ((?x2533 (+ (+ (+ (+ (* 2.0 |v2:15|) ?x52) (* 17.0 |v5:12|)) (* 9.0 |v5:12|)) ?x6732)))
 (let (($x2828 (or (<= (+ (+ ?x2533 ?x3017) ?x291) ?x5735) (<= (+ (+ ?x2870 ?x1411) ?x1542) 13.0))))
 (let ((?x2345 (- 2.0)))
 (let ((?x1226 (* ?x5999 |v12:5|)))
 (let ((?x3050 (* ?x5999 |v2:15|)))
 (let ((?x422 (* ?x717 |v15:2|)))
 (let ((?x6478 (+ (+ (+ (+ (+ ?x422 (* ?x3486 |v16:1|)) (* ?x2331 |v3:14|)) ?x422) ?x3050) ?x1226)))
 (let ((?x7681 (* 7.0 |v12:5|)))
 (let ((?x5471 (* ?x2345 |v0:17|)))
 (let ((?x4526 (+ (+ (+ (+ (+ (* 6.0 |v5:12|) ?x72) ?x1226) ?x22) (* 11.0 |v17:0|)) ?x5471)))
 (let ((?x5537 (* 12.0 |v12:5|)))
 (let ((?x4605 (- 15.0)))
 (let ((?x6853 (* ?x4605 |v14:3|)))
 (let ((?x7310 (* ?x4605 |v4:13|)))
 (let ((?x6474 (+ (+ (+ (* ?x717 |v0:17|) (* 8.0 |v5:12|)) (* 16.0 |v1:16|)) ?x7310)))
 (let ((?x6304 (* ?x3486 |v15:2|)))
 (let ((?x5648 (* ?x2294 |v16:1|)))
 (let ((?x3053 (+ (+ (+ (+ (+ (* ?x983 |v1:16|) ?x7236) ?x291) (* ?x7503 |v16:1|)) ?x5648) ?x6304)))
 (let (($x2356 (or (<= (+ ?x3053 (* 4.0 |v17:0|)) 18.0) (<= (+ (+ (+ ?x6474 ?x6853) ?x5537) (* ?x2331 |v14:3|)) 1.0))))
 (let ((?x321 (* 4.0 |v0:17|)))
 (let ((?x3551 (* 8.0 |v13:4|)))
 (let ((?x1409 (* 11.0 ?x536)))
 (let ((?x3255 (+ (+ (+ (* ?x2345 ?x2903) (* 15.0 ?x4733)) (* ?x4605 ?x4733)) (* ?x3649 |v15:2|))))
 (let ((?x3107 (* ?x2345 |v13:4|)))
 (let ((?x5133 (+ (+ (+ (+ (* ?x4605 ?x2097) (* ?x7119 |v13:4|)) ?x5691) (* 10.0 |v2:15|)) ?x2683)))
 (let ((?x4168 (* ?x4805 ?x2903)))
 (let ((?x5191 (* ?x4205 |v3:14|)))
 (let ((?x7271 (* 10.0 |v17:0|)))
 (let ((?x4022 (* ?x5735 |v4:13|)))
 (let ((?x555 (+ (+ (* 8.0 |v5:12|) (* ?x5713 |v3:14|)) ?x4022)))
 (let (($x5327 (or (<= (+ (+ (+ (+ ?x555 ?x7271) (* ?x2294 |v13:4|)) ?x5191) ?x4168) 1.0) (<= (+ (+ ?x5133 ?x3107) (* 9.0 ?x2903)) 4.0))))
 (let (($x5113 (and (and $x5327 (<= (+ (+ (+ ?x3255 ?x1409) ?x3551) ?x321) ?x7119)) (or $x2356 (and (<= (+ ?x4526 ?x7681) ?x5735) (<= (+ ?x6478 ?x5660) ?x2345))))))
 (let (($x4361 (or (and $x5113 (or (or $x2828 $x6170) (or $x3479 $x1540))) (and (and (and $x4900 $x4140) $x8057) $x3561))))
 (let ((?x4851 (* 0.0 |v15:2|)))
 (let ((?x412 (* 16.0 |v12:5|)))
 (let ((?x7864 (+ (+ (+ (+ (* 9.0 |v1:16|) ?x3593) (* ?x2345 ?x72)) (* ?x3486 |v12:5|)) ?x412)))
 (let ((?x3249 (* ?x3649 ?x2903)))
 (let ((?x6546 (* ?x4805 |v16:1|)))
 (let ((?x777 (+ (+ (+ (+ (* (- 9.0) ?x72) (* ?x1556 ?x2097)) (* ?x5128 |v13:4|)) ?x6496) ?x6546)))
 (let (($x1764 (or (<= (+ (+ ?x777 ?x4168) ?x3249) 18.0) (<= (+ (+ ?x7864 ?x412) ?x4851) ?x4205))))
 (let ((?x3693 (* ?x3486 |v2:15|)))
 (let ((?x2149 (* 13.0 |v16:1|)))
 (let ((?x6112 (* 6.0 |v13:4|)))
 (let ((?x4280 (+ (+ (+ (+ ?x430 (* 8.0 ?x72)) (* ?x5713 |v4:13|)) (* 11.0 |v17:0|)) ?x6112)))
 (let ((?x713 (* 5.0 |v12:5|)))
 (let ((?x2080 (* 20.0 ?x357)))
 (let ((?x1832 (* ?x4204 ?x2903)))
 (let ((?x7179 (+ (+ (+ (+ (* 5.0 |v4:13|) (* 18.0 |v17:0|)) (* 3.0 |v13:4|)) ?x1832) ?x2080)))
 (let (($x7366 (or (<= (+ (+ ?x7179 (* ?x4805 |v12:5|)) ?x713) 0.0) (<= (+ (+ ?x4280 ?x2149) ?x3693) ?x1556))))
 (let ((?x1372 (* ?x2294 |v15:2|)))
 (let ((?x2524 (* 10.0 |v13:4|)))
 (let ((?x5490 (+ (+ (+ (+ ?x5437 ?x3551) (* 16.0 ?x72)) (* 9.0 ?x72)) (* 19.0 |v15:2|))))
 (let ((?x7314 (* ?x7119 ?x357)))
 (let ((?x682 (* ?x5735 |v5:12|)))
 (let ((?x3578 (+ (+ (+ (+ ?x2953 (* 7.0 ?x357)) (* ?x4205 |v13:4|)) (* ?x983 ?x2097)) ?x682)))
 (let (($x3845 (and (<= (+ (+ ?x3578 ?x5103) ?x7314) 7.0) (<= (+ (+ ?x5490 ?x2524) ?x1372) ?x5713))))
 (let ((?x4499 (* ?x1556 ?x2097)))
 (let ((?x3799 (* 11.0 ?x2097)))
 (let ((?x8 (* 4.0 |v12:5|)))
 (let ((?x48 (+ (+ (+ (+ (* 12.0 |v17:0|) (* ?x7503 |v16:1|)) (* 11.0 |v1:16|)) ?x8) (* ?x5999 ?x536))))
 (let ((?x4312 (* ?x4805 |v5:12|)))
 (let ((?x3244 (* 10.0 ?x72)))
 (let ((?x3738 (+ (+ (+ (+ (* 14.0 |v14:3|) (* 7.0 ?x536)) (* 5.0 |v17:0|)) ?x5103) |v13:4|)))
 (let (($x1605 (and (<= (+ (+ ?x3738 ?x3244) ?x4312) 12.0) (<= (+ (+ ?x48 ?x3799) ?x4499) 18.0))))
 (let ((?x1784 (* 0.0 |v1:16|)))
 (let ((?x3709 (* 14.0 ?x4733)))
 (let ((?x6734 (* ?x7119 |v13:4|)))
 (let ((?x3252 (+ (+ (+ (* 9.0 |v2:15|) (* ?x7119 ?x72)) (* 13.0 ?x72)) (* ?x2345 ?x2097))))
 (let ((?x3331 (* 8.0 ?x2903)))
 (let ((?x7411 (+ (+ (+ (+ (+ ?x7390 (* 3.0 ?x4733)) (* 18.0 |v13:4|)) ?x7775) ?x3331) (* ?x4605 ?x536))))
 (let (($x4650 (or (<= (+ ?x7411 ?x430) 14.0) (<= (+ (+ (+ ?x3252 ?x6734) ?x3709) ?x1784) ?x4805))))
 (let ((?x3642 (* ?x5128 ?x536)))
 (let ((?x2887 (* 4.0 ?x536)))
 (let ((?x2806 (+ (+ (+ (+ (* ?x2345 |v4:13|) (* 12.0 |v16:1|)) (* 9.0 |v2:15|)) ?x2887) ?x3642)))
 (let ((?x6809 (* ?x4805 |v4:13|)))
 (let ((?x987 (+ (+ (+ (+ ?x3602 (* ?x2331 |v0:17|)) (* 10.0 |v2:15|)) (* 11.0 |v12:5|)) ?x1721)))
 (let (($x475 (and (<= (+ (+ ?x987 ?x6809) ?x1463) ?x5713) (<= (+ (+ ?x2806 ?x6304) (* ?x4204 ?x536)) ?x5713))))
 (let ((?x784 (* 8.0 |v16:1|)))
 (let ((?x1697 (* ?x5128 |v5:12|)))
 (let ((?x1079 (+ (+ (+ (+ (* 7.0 |v1:16|) (* ?x717 ?x72)) (* ?x1556 |v14:3|)) ?x4312) ?x1697)))
 (let (($x2716 (and (and (<= (+ (+ ?x1079 ?x4168) ?x784) 17.0) (or $x475 $x4650)) (and (and $x1605 $x3845) (and $x7366 $x1764)))))
 (let ((?x3032 (* 16.0 |v0:17|)))
 (let ((?x7308 (* 8.0 |v0:17|)))
 (let ((?x8929 (* ?x5128 |v2:15|)))
 (let ((?x5405 (+ (+ (+ (+ (* 10.0 |v3:14|) (* ?x7503 ?x72)) (* ?x717 ?x357)) ?x8929) ?x3331)))
 (let ((?x1490 (* 18.0 |v16:1|)))
 (let ((?x5177 (* 13.0 |v15:2|)))
 (let ((?x35 (+ (+ (+ (* 18.0 |v13:4|) (* ?x7503 |v14:3|)) (* 15.0 |v4:13|)) (* 13.0 |v13:4|))))
 (let ((?x3764 (* ?x5735 |v17:0|)))
 (let ((?x6133 (* ?x5735 ?x72)))
 (let ((?x2994 (* ?x5713 ?x536)))
 (let ((?x2156 (* ?x4204 ?x357)))
 (let ((?x4714 (+ (+ (+ (+ (* 7.0 |v3:14|) (* ?x5128 ?x357)) (* 11.0 |v17:0|)) ?x2156) ?x2994)))
 (let (($x1734 (and (<= (+ (+ ?x4714 ?x6133) ?x3764) ?x1556) (<= (+ (+ (+ ?x35 ?x5177) (* ?x4605 |v13:4|)) ?x1490) 20.0))))
 (let ((?x6299 (* ?x2345 ?x72)))
 (let ((?x3450 (* ?x5999 |v4:13|)))
 (let ((?x486 (* ?x983 |v16:1|)))
 (let ((?x1778 (+ (+ (+ (+ (* 18.0 ?x4733) (* 2.0 ?x2903)) (* 13.0 ?x536)) ?x486) (* 15.0 |v14:3|))))
 (let ((?x4525 (* 10.0 |v14:3|)))
 (let ((?x1095 (* ?x2294 |v3:14|)))
 (let ((?x4394 (+ (+ (+ (+ (+ ?x4525 (* ?x2345 |v3:14|)) (* ?x2294 |v0:17|)) ?x2080) ?x1095) ?x2129)))
 (let (($x6246 (or (and (<= (+ ?x4394 ?x4525) 19.0) (<= (+ (+ ?x1778 ?x3450) ?x6299) ?x1556)) $x1734)))
 (let ((?x5782 (* 12.0 |v14:3|)))
 (let ((?x7877 (* ?x7503 ?x2097)))
 (let ((?x5932 (* 17.0 ?x357)))
 (let ((?x3285 (+ (+ (+ (+ (* ?x3649 ?x357) (* 19.0 |v12:5|)) (* 9.0 |v2:15|)) ?x5932) ?x2013)))
 (let (($x3357 (or (<= (+ (+ ?x3285 ?x7877) ?x5782) 13.0) (or $x6246 (<= (+ (+ ?x5405 ?x7308) ?x3032) ?x5735)))))
 (let ((?x6897 (* 16.0 |v13:4|)))
 (let ((?x3718 (* 2.0 |v17:0|)))
 (let ((?x6911 (+ (+ (+ (+ (+ (* 8.0 |v4:13|) ?x2994) ?x1832) (* ?x2294 ?x4733)) ?x3718) ?x2880)))
 (let ((?x5739 (* ?x3649 |v4:13|)))
 (let ((?x2310 (* ?x4605 |v3:14|)))
 (let ((?x6582 (+ (+ (+ (+ (+ (* ?x717 ?x536) ?x2524) (* ?x2345 |v14:3|)) ?x4022) |v15:2|) ?x2310)))
 (let ((?x6012 (* 13.0 |v4:13|)))
 (let ((?x2868 (* 17.0 |v3:14|)))
 (let ((?x6181 (+ (+ (+ (+ (* ?x4805 |v14:3|) (* (- 9.0) |v1:16|)) ?x5537) (* 5.0 ?x72)) ?x2868)))
 (let ((?x3104 (* 6.0 |v12:5|)))
 (let ((?x293 (* ?x4205 ?x4733)))
 (let ((?x1535 (+ (+ (+ (+ (+ ?x2156 ?x1490) (* 10.0 |v15:2|)) (* 11.0 |v0:17|)) ?x293) ?x3104)))
 (let (($x6254 (and (and (<= (+ ?x1535 ?x5739) 2.0) (<= (+ (+ ?x6181 ?x6012) ?x6304) ?x4805)) (and (<= (+ ?x6582 ?x5739) 16.0) (<= (+ ?x6911 ?x6897) ?x3486)))))
 (let ((?x8762 (* 15.0 |v2:15|)))
 (let ((?x9063 (* ?x2345 |v3:14|)))
 (let ((?x7182 (* 20.0 |v16:1|)))
 (let ((?x5710 (+ (+ (+ (+ (* ?x3486 ?x2903) (* 20.0 ?x2097)) (* 12.0 ?x536)) ?x7182) ?x9063)))
 (let ((?x3148 (+ (+ (+ (+ (+ (* ?x983 |v0:17|) ?x6364) ?x1409) ?x3521) (* ?x1556 |v4:13|)) ?x3249)))
 (let (($x1355 (or (<= (+ ?x3148 (* ?x4204 |v16:1|)) 12.0) (<= (+ (+ ?x5710 ?x3597) ?x8762) 2.0))))
 (let ((?x4678 (* ?x5999 |v13:4|)))
 (let ((?x8101 (+ (+ (+ (+ ?x6732 (* 12.0 ?x357)) (* ?x2294 ?x2097)) (* ?x7119 |v3:14|)) ?x4678)))
 (let ((?x537 (* 16.0 ?x357)))
 (let ((?x5333 (+ (+ (+ (+ (* ?x983 ?x4733) (* ?x4205 |v1:16|)) (* 16.0 |v3:14|)) ?x291) (* ?x1406 |v16:1|))))
 (let (($x2320 (and (<= (+ (+ ?x5333 ?x537) (* 19.0 |v14:3|)) ?x2331) (<= (+ (+ ?x8101 ?x5034) ?x3597) 20.0))))
 (let ((?x2665 (* 20.0 |v14:3|)))
 (let ((?x3459 (* ?x3649 |v3:14|)))
 (let ((?x3565 (+ (+ (+ (+ ?x6853 (* 3.0 |v3:14|)) (* ?x5713 |v1:16|)) (* ?x4205 ?x357)) ?x3459)))
 (let ((?x6692 (+ (+ (+ (+ (+ (+ ?x2903 ?x7390) ?x5966) ?x3642) ?x2880) (* 13.0 ?x4733)) |v1:16|)))
 (let ((?x2199 (* ?x1556 |v2:15|)))
 (let ((?x3413 (* 3.0 |v16:1|)))
 (let ((?x700 (+ (+ (+ (+ (+ ?x3412 (* ?x4805 |v17:0|)) (* 12.0 |v13:4|)) ?x3244) ?x7310) ?x3413)))
 (let ((?x6221 (* 5.0 |v17:0|)))
 (let ((?x3712 (* ?x4205 |v4:13|)))
 (let ((?x1552 (+ (+ (+ (+ (* 11.0 |v15:2|) (* ?x4204 |v17:0|)) ?x2149) (* 7.0 |v16:1|)) ?x3712)))
 (let (($x6637 (and (<= (+ (+ ?x1552 ?x6221) (* 2.0 ?x4733)) ?x983) (<= (+ ?x700 ?x2199) 14.0))))
 (let (($x2655 (or $x6637 (and (<= ?x6692 ?x2345) (<= (+ (+ ?x3565 (* ?x4605 |v15:2|)) ?x2665) 16.0)))))
 (let ((?x3557 (* 7.0 |v0:17|)))
 (let ((?x3082 (* 20.0 |v1:16|)))
 (let ((?x3145 (+ (+ (+ (+ (* 6.0 |v16:1|) (* ?x7503 |v16:1|)) ?x6304) (* ?x983 |v0:17|)) ?x3597)))
 (let (($x2976 (and (or (<= (+ (+ ?x3145 ?x3082) ?x3557) 8.0) $x2655) (or (or $x2320 $x1355) $x6254))))
 (let ((?x3701 (* ?x983 |v1:16|)))
 (let ((?x2279 (+ (+ (+ (+ (+ ?x2665 (* ?x1556 |v1:16|)) (* 12.0 ?x536)) ?x4733) ?x3701) ?x3450)))
 (let ((?x2722 (* 5.0 ?x72)))
 (let ((?x4116 (+ (+ (+ (+ (+ ?x4678 (* (- 9.0) |v15:2|)) ?x4022) (* ?x5713 |v15:2|)) ?x2722) ?x3412)))
 (let ((?x4422 (* ?x5713 |v5:12|)))
 (let ((?x623 (* ?x3649 |v2:15|)))
 (let ((?x4923 (* 20.0 |v0:17|)))
 (let ((?x1825 (+ (+ (+ (+ ?x4851 (* 6.0 ?x357)) (* 2.0 ?x536)) (* ?x4605 |v1:16|)) ?x4923)))
 (let ((?x203 (- 9.0)))
 (let ((?x1592 (* ?x203 ?x4733)))
 (let ((?x6499 (* ?x1556 |v1:16|)))
 (let ((?x3474 (+ (+ (+ (+ (+ (+ (* ?x2331 ?x2097) ?x2080) ?x6732) ?x3112) ?x1209) ?x6499) ?x1592)))
 (let (($x4203 (or (and (<= ?x3474 ?x717) (<= (+ (+ ?x1825 ?x623) ?x4422) 1.0)) (or (<= (+ ?x4116 ?x7308) 4.0) (<= (+ ?x2279 ?x7775) ?x5999)))))
 (let ((?x7508 (* 10.0 |v4:13|)))
 (let ((?x3332 (+ (+ (+ (+ ?x7182 (* ?x2294 |v14:3|)) (* 2.0 ?x536)) (* 0.0 |v14:3|)) ?x2726)))
 (let ((?x3340 (* ?x4204 |v17:0|)))
 (let ((?x2772 (+ (+ (+ (* ?x4605 ?x357) (* 15.0 |v17:0|)) (* 11.0 |v14:3|)) (* ?x7119 |v14:3|))))
 (let (($x3673 (or (<= (+ (+ (+ ?x2772 ?x3340) ?x2953) ?x3764) 18.0) (<= (+ (+ ?x3332 ?x7508) ?x1832) 5.0))))
 (let ((?x1130 (* ?x3486 |v4:13|)))
 (let ((?x3142 (+ (+ (+ (+ (+ (* 0.0 ?x536) ?x7877) (* ?x4205 ?x357)) ?x2634) ?x3871) ?x412)))
 (let ((?x5114 (* 12.0 ?x2903)))
 (let ((?x2107 (+ (+ (+ (+ ?x6172 (* ?x2345 |v5:12|)) (* 16.0 |v3:14|)) (* 6.0 |v15:2|)) ?x537)))
 (let (($x1678 (or (<= (+ (+ ?x2107 ?x5114) (* ?x203 ?x536)) 13.0) (<= (+ ?x3142 ?x1130) 13.0))))
 (let ((?x2541 (* 3.0 ?x2903)))
 (let ((?x138 (* ?x983 |v14:3|)))
 (let ((?x1310 (* 17.0 |v4:13|)))
 (let ((?x1461 (+ (+ (+ (+ (* 17.0 |v16:1|) (* 5.0 |v13:4|)) (* ?x4204 |v13:4|)) ?x1310) ?x138)))
 (let ((?x5820 (* 5.0 ?x2097)))
 (let ((?x572 (+ (+ (+ (+ (* 12.0 ?x2097) (* 15.0 ?x2097)) ?x2149) (* 5.0 ?x2903)) ?x5820)))
 (let (($x198 (or (<= (+ (+ ?x572 (* ?x7119 ?x4733)) ?x486) ?x7503) (<= (+ (+ ?x1461 ?x2541) ?x3781) 19.0))))
 (let ((?x30 (+ (+ (+ (+ (* ?x4205 |v16:1|) (* 15.0 |v3:14|)) (* 4.0 ?x2903)) ?x5660) ?x6304)))
 (let ((?x5891 (* 18.0 |v2:15|)))
 (let ((?x846 (* 4.0 |v4:13|)))
 (let ((?x2256 (* 12.0 |v15:2|)))
 (let ((?x6337 (+ (+ (+ (+ (* ?x7503 ?x536) (* ?x2345 |v16:1|)) (* 2.0 |v4:13|)) ?x4678) ?x2256)))
 (let (($x760 (and (<= (+ (+ ?x6337 ?x846) ?x5891) ?x203) (<= (+ (+ ?x30 (* ?x4205 ?x536)) (* 8.0 ?x4733)) 6.0))))
 (let ((?x5185 (* ?x3486 ?x357)))
 (let ((?x3136 (* ?x983 |v17:0|)))
 (let ((?x4809 (* ?x7119 |v3:14|)))
 (let ((?x1803 (+ (+ (+ (* 12.0 |v4:13|) (* ?x4805 |v13:4|)) (* 13.0 ?x72)) (* ?x5999 |v17:0|))))
 (let ((?x1566 (* ?x203 |v17:0|)))
 (let ((?x323 (* 2.0 |v4:13|)))
 (let ((?x7257 (* ?x5128 ?x357)))
 (let ((?x5417 (+ (+ (+ (+ (+ ?x6133 (* ?x4805 ?x357)) |v16:1|) (* ?x2345 |v1:16|)) ?x7257) ?x323)))
 (let (($x2228 (or (<= (+ ?x5417 ?x1566) 12.0) (<= (+ (+ (+ ?x1803 ?x4809) ?x3136) ?x5185) ?x5713))))
 (let ((?x6708 (* 8.0 |v15:2|)))
 (let ((?x2840 (+ (+ (+ (* 17.0 |v5:12|) (* ?x5999 |v3:14|)) (* ?x2331 ?x2097)) (* ?x717 |v17:0|))))
 (let ((?x508 (* ?x717 |v0:17|)))
 (let ((?x6060 (+ (+ (+ (+ (+ (* ?x4605 |v17:0|) ?x784) ?x3311) (* 7.0 |v1:16|)) ?x508) ?x3311)))
 (let (($x8162 (or (<= (+ ?x6060 ?x22) 11.0) (<= (+ (+ (+ ?x2840 ?x6708) ?x5966) ?x3593) ?x5999))))
 (let (($x2694 (and (or (or (or $x8162 $x2228) (or $x760 $x198)) (and (and $x1678 $x3673) $x4203)) $x2976)))
 (let ((?x1474 (* 13.0 ?x72)))
 (let ((?x301 (* 4.0 |v14:3|)))
 (let ((?x2680 (+ (+ (+ (+ (* ?x717 |v14:3|) ?x5041) (* 7.0 |v1:16|)) (* ?x5713 ?x4733)) ?x301)))
 (let ((?x6507 (* ?x5713 ?x72)))
 (let ((?x2525 (* 6.0 ?x2097)))
 (let ((?x3276 (+ (+ (+ (+ (+ ?x1474 (* 3.0 |v3:14|)) (* 15.0 |v1:16|)) ?x6546) ?x3017) ?x2525)))
 (let ((?x8554 (* ?x4204 |v12:5|)))
 (let ((?x1870 (* ?x5735 |v12:5|)))
 (let ((?x353 (+ (+ (+ (+ (* 15.0 ?x2903) (* ?x1406 ?x4733)) (* 5.0 |v4:13|)) ?x1870) |v12:5|)))
 (let ((?x1972 (* 6.0 |v2:15|)))
 (let ((?x2148 (* 0.0 |v14:3|)))
 (let ((?x3647 (* 17.0 |v16:1|)))
 (let ((?x4618 (+ (+ (+ (+ (* ?x2294 ?x357) ?x3597) (* ?x1556 ?x72)) (* 20.0 ?x72)) ?x3647)))
 (let (($x1530 (or (<= (+ (+ ?x4618 ?x2148) ?x1972) ?x2294) (<= (+ (+ ?x353 ?x8554) (* 3.0 |v15:2|)) ?x2345))))
 (let (($x1327 (or $x1530 (and (<= (+ ?x3276 ?x6507) ?x4205) (<= (+ (+ ?x2680 ?x1592) ?x1474) 14.0)))))
 (let ((?x4470 (+ (+ (+ (+ (+ ?x3112 ?x422) ?x1697) (* ?x5128 ?x4733)) (* ?x4204 |v0:17|)) ?x59)))
 (let ((?x4151 (* ?x4205 |v1:16|)))
 (let ((?x690 (+ (+ (+ (+ (+ (* 5.0 |v1:16|) (* 20.0 |v5:12|)) ?x4285) ?x3799) ?x4151) ?x6064)))
 (let ((?x1938 (* ?x3486 ?x72)))
 (let ((?x4826 (* 5.0 |v0:17|)))
 (let ((?x1921 (+ (+ (+ (+ (* ?x1406 |v13:4|) (* ?x717 ?x536)) ?x5471) (* ?x983 ?x4733)) ?x4826)))
 (let ((?x2044 (* 6.0 |v14:3|)))
 (let ((?x514 (* 5.0 |v4:13|)))
 (let ((?x7967 (* 2.0 ?x2903)))
 (let ((?x2713 (+ (+ (+ (+ (+ (* 15.0 ?x4733) ?x6623) ?x5185) (* 8.0 |v12:5|)) ?x7967) ?x514)))
 (let (($x1603 (or (<= (+ ?x2713 ?x2044) ?x4605) (<= (+ (+ ?x1921 (* 16.0 |v17:0|)) ?x1938) 6.0))))
 (let (($x3476 (and (and $x1603 (and (<= (+ ?x690 ?x5648) 20.0) (<= (+ ?x4470 ?x6708) ?x5713))) $x1327)))
 (let ((?x8343 (* ?x983 |v2:15|)))
 (let ((?x6475 (* 9.0 |v2:15|)))
 (let ((?x7532 (+ (+ (+ (+ (+ ?x2013 ?x430) (* 14.0 |v12:5|)) (* ?x1556 |v13:4|)) ?x5820) ?x6475)))
 (let ((?x1695 (+ (+ (+ (+ (+ (+ ?x2013 ?x7182) ?x6221) ?x293) (* 11.0 |v4:13|)) ?x729) (* ?x4605 ?x2903))))
 (let ((?x4836 (* ?x4205 ?x357)))
 (let ((?x5320 (+ (+ (+ (+ (* ?x3649 |v5:12|) (* ?x7119 |v15:2|)) ?x1759) (* ?x4805 |v14:3|)) ?x3781)))
 (let ((?x2145 (+ (+ (+ (+ (* 7.0 ?x2097) ?x7182) (* 11.0 |v3:14|)) (* ?x2294 |v1:16|)) ?x6064)))
 (let (($x4641 (or (<= (+ (+ ?x2145 (* ?x1556 ?x4733)) |v13:4|) ?x2345) (<= (+ (+ ?x5320 ?x4836) ?x3331) ?x4605))))
 (let ((?x6597 (+ (+ (+ (+ (+ (* 4.0 |v13:4|) ?x6133) |v1:16|) (* ?x4205 |v2:15|)) ?x7775) ?x1566)))
 (let ((?x1127 (* 9.0 |v4:13|)))
 (let ((?x1260 (* 5.0 |v1:16|)))
 (let ((?x6362 (+ (+ (+ (+ (* ?x1556 |v15:2|) (* 8.0 |v17:0|)) ?x2148) (* ?x983 ?x536)) (* ?x2345 |v15:2|))))
 (let ((?x1105 (* 8.0 ?x72)))
 (let ((?x2387 (* ?x7119 |v1:16|)))
 (let ((?x2426 (* 12.0 |v17:0|)))
 (let ((?x1822 (+ (+ (+ (+ (+ ?x3551 ?x2214) (* ?x5999 |v0:17|)) (* ?x2345 |v12:5|)) ?x2426) ?x2387)))
 (let (($x1924 (or (<= (+ ?x1822 ?x1105) ?x3649) (and (<= (+ (+ ?x6362 ?x1260) ?x1127) 13.0) (<= (+ ?x6597 ?x4022) ?x5128)))))
 (let (($x7286 (and (or $x1924 (and $x4641 (or (<= ?x1695 2.0) (<= (+ ?x7532 ?x8343) ?x5999)))) $x3476)))
 (let ((?x1526 (* ?x7503 |v2:15|)))
 (let ((?x2261 (+ (+ (+ (+ (* 6.0 ?x72) (* ?x5713 |v17:0|)) ?x7271) (* 14.0 |v12:5|)) (* ?x203 |v16:1|))))
 (let ((?x2428 (* ?x1406 |v0:17|)))
 (let ((?x6870 (* 15.0 |v0:17|)))
 (let ((?x5416 (+ (+ (+ (+ (* ?x2294 |v14:3|) (* ?x2331 ?x2097)) (* ?x1556 |v12:5|)) ?x6734) ?x6870)))
 (let (($x3859 (and (<= (+ (+ ?x5416 (* 18.0 |v12:5|)) ?x2428) 10.0) (<= (+ (+ ?x2261 ?x1526) (* 5.0 |v16:1|)) 15.0))))
 (let ((?x6291 (* ?x2345 |v1:16|)))
 (let ((?x1896 (+ (+ (+ (+ (* 18.0 |v17:0|) (* ?x3649 ?x4733)) (* ?x5735 ?x2903)) ?x6291) ?x1526)))
 (let ((?x3076 (* 11.0 |v13:4|)))
 (let ((?x2893 (+ (+ (+ (+ (* 0.0 |v16:1|) (* 14.0 |v3:14|)) ?x6897) (* ?x717 ?x357)) ?x3076)))
 (let (($x5062 (or (<= (+ (+ ?x2893 ?x6012) ?x8995) 9.0) (<= (+ (+ ?x1896 |v14:3|) (* 6.0 ?x2903)) 20.0))))
 (let ((?x2392 (* 12.0 ?x536)))
 (let ((?x5769 (* ?x983 ?x72)))
 (let ((?x5247 (+ (+ (+ (+ (+ ?x3107 (* ?x983 |v0:17|)) ?x7508) (* 19.0 ?x2097)) ?x5769) ?x2129)))
 (let ((?x3543 (* ?x1556 |v13:4|)))
 (let ((?x6559 (* 7.0 |v14:3|)))
 (let ((?x3569 (* ?x3486 ?x2903)))
 (let ((?x2762 (+ (+ (+ (+ (* ?x717 ?x4733) ?x7681) (* 2.0 |v3:14|)) (* ?x5128 |v3:14|)) ?x3569)))
 (let ((?x6560 (+ (+ (+ (+ (+ ?x8554 ?x3597) ?x4285) (* 12.0 |v5:12|)) (* 11.0 |v15:2|)) ?x2044)))
 (let ((?x208 (* ?x5999 |v3:14|)))
 (let ((?x8827 (+ (+ (+ (+ (+ (* 5.0 |v5:12|) |v14:3|) ?x6364) (* 8.0 |v5:12|)) ?x208) (* ?x7503 |v13:4|))))
 (let (($x8733 (and (and (<= (+ ?x8827 (* ?x5999 ?x72)) ?x2331) (<= (+ ?x6560 ?x8995) ?x5128)) (or (<= (+ (+ ?x2762 ?x6559) ?x3543) ?x1406) (<= (+ ?x5247 ?x2392) ?x5713)))))
 (let ((?x2287 (* 12.0 |v13:4|)))
 (let ((?x693 (+ (+ (+ (+ (* 9.0 |v13:4|) (* ?x3486 |v17:0|)) (* ?x1406 |v12:5|)) ?x6112) ?x2287)))
 (let ((?x699 (* 15.0 ?x2903)))
 (let ((?x5060 (* 9.0 |v16:1|)))
 (let ((?x8688 (* ?x2331 |v1:16|)))
 (let ((?x4129 (* 7.0 ?x536)))
 (let ((?x3158 (* ?x5128 |v3:14|)))
 (let ((?x175 (+ (+ (* 3.0 |v3:14|) (* ?x203 |v4:13|)) ?x3158)))
 (let (($x6390 (and (<= (+ (+ (+ (+ ?x175 ?x4129) ?x8688) ?x5060) ?x699) ?x203) (<= (+ (+ ?x693 ?x5932) ?x323) ?x2294))))
 (let ((?x1634 (* ?x2294 |v4:13|)))
 (let ((?x6371 (+ (+ (+ (+ (* 18.0 |v5:12|) ?x5177) (* 10.0 ?x2097)) (* 11.0 ?x72)) ?x7775)))
 (let ((?x3572 (+ (+ (+ (+ (+ ?x2149 (* ?x7119 ?x2097)) ?x2541) (* 19.0 |v5:12|)) ?x2426) ?x3693)))
 (let ((?x8588 (* 2.0 |v16:1|)))
 (let ((?x369 (+ (+ (+ (+ (+ (* ?x5735 |v16:1|) (* 18.0 ?x2903)) ?x2994) ?x3136) ?x8588) (* 10.0 ?x2903))))
 (let ((?x388 (* ?x1406 |v5:12|)))
 (let ((?x7513 (* 19.0 |v4:13|)))
 (let ((?x9 (+ (+ (+ (+ ?x887 (* ?x983 ?x536)) (* ?x4605 |v0:17|)) (* 9.0 ?x72)) ?x7513)))
 (let ((?x1714 (+ (+ (+ (+ (* ?x5999 |v5:12|) ?x3450) (* ?x2294 |v0:17|)) (* 2.0 ?x357)) ?x138)))
 (let (($x426 (or (<= (+ (+ ?x1714 ?x5471) ?x5769) 11.0) (<= (+ (+ ?x9 ?x388) (* ?x5713 |v12:5|)) 12.0))))
 (let (($x432 (or (or $x426 (and (<= (+ ?x369 ?x1542) ?x5128) (<= (+ ?x3572 ?x3502) ?x5128))) (or (<= (+ (+ ?x6371 (* ?x5999 |v14:3|)) ?x1634) 12.0) $x6390))))
 (let (($x1528 (and (or (or (and $x432 (or $x8733 (and $x5062 $x3859))) $x7286) $x2694) (and (or $x3357 $x2716) $x4361))))
 (let (($x4184 (not (= |v6:11_st| (RMk1 val!8939)))))
 (let (($x3947 (not (= |v7:10_st| (RMk1 val!8938)))))
 (let (($x3746 (not (= |v8:9_st| (RMk1 val!8937)))))
 (let (($x3505 (not (= |v9:8_st| (RMk1 val!8936)))))
 (let (($x1202 (not (= |v10:7_st| (RMk1 val!8935)))))
 (let (($x2351 (not (= |v11:6_st| (RMk1 val!8934)))))
 (and $x2351 $x1202 $x3505 $x3746 $x3947 $x4184 $x1528))))))))))))))))))))))))))))))))))))))))))))))))))))))))))))))))))))))))))))))))))))))))))))))))))))))))))))))))))))))))))))))))))))))))))))))))))))))))))))))))))))))))))))))))))))))))))))))))))))))))))))))))))))))))))))))))))))))))))))))))))))))))))))))))))))))))))))))))))))))))))))))))))))))))))))))))))))))))))))))))))))))))))))))))))))))))))))))))))))))))))))))))))))))))))))))))))))))))))))))))))))))))))))))))))))))))
 )
 )
 )
 )
 )
 )
 )
 )
 )
 )
 )
 )
 )
 )
 )
 )
 )
 )
(check-sat)
